133840
1,87,44,66,59,10,27,28,76,89,93,12,92,23,80,57,83,34,26,50,68,99,19,81,42,9,106,8,97,55,29,30,5,52,65,31,98,13,88,69,6,40,56,20,16,64,90,17,21,77,46,86,22,62,25,45,72,82,51,100,35,75,63,32,7,18,49,37,39,84,53,33,2,73,48,85,36,71,54,95,67,41,11,104,38,105,101,70,94,3,78,96,60,91,79,43,15,4,103,61,47,14,74,102,24,58,1